p edge 63 204
e 1 2
e 1 3
e 1 4
e 1 5
e 1 6
e 1 7
e 1 8
e 2 3
e 2 4
e 2 5
e 2 6
e 2 7
e 2 9
e 3 5
e 3 6
e 3 7
e 3 10
e 3 11
e 3 12
e 3 13
e 3 14
e 4 5
e 4 6
e 4 7
e 4 15
e 5 6
e 5 7
e 6 7
e 6 16
e 7 17
e 7 18
e 7 15
e 8 32
e 8 33
e 8 34
e 8 13
e 8 14
e 8 35
e 8 36
e 9 15
e 9 38
e 9 39
e 9 40
e 9 42
e 10 17
e 10 19
e 10 18
e 10 20
e 10 21
e 10 22
e 10 23
e 11 12
e 11 25
e 11 26
e 11 27
e 11 16
e 11 28
e 12 25
e 12 26
e 12 27
e 12 16
e 12 28
e 12 29
e 13 32
e 13 33
e 13 34
e 13 14
e 13 35
e 14 33
e 14 34
e 14 35
e 15 38
e 15 39
e 15 40
e 15 41
e 15 42
e 16 25
e 16 26
e 16 27
e 16 28
e 16 31
e 17 19
e 17 18
e 17 20
e 17 21
e 17 22
e 18 19
e 18 21
e 18 22
e 19 20
e 19 21
e 19 22
e 20 21
e 20 22
e 21 22
e 21 24
e 22 23
e 23 46
e 23 47
e 23 48
e 23 24
e 23 49
e 23 50
e 24 46
e 24 48
e 24 49
e 24 50
e 25 26
e 25 27
e 25 28
e 25 30
e 26 28
e 27 28
e 29 30
e 29 51
e 29 31
e 29 52
e 29 53
e 29 54
e 30 51
e 30 31
e 30 52
e 30 53
e 30 54
e 31 51
e 31 52
e 31 53
e 31 54
e 32 33
e 32 34
e 32 35
e 32 37
e 33 34
e 33 35
e 33 37
e 34 35
e 36 37
e 36 56
e 36 57
e 36 58
e 36 59
e 37 55
e 37 56
e 37 57
e 37 58
e 37 59
e 38 39
e 38 40
e 38 41
e 38 42
e 39 40
e 39 41
e 39 42
e 40 41
e 40 42
e 41 42
e 41 43
e 41 44
e 42 45
e 43 45
e 43 60
e 43 61
e 43 62
e 43 44
e 43 63
e 44 45
e 44 60
e 44 62
e 44 63
e 45 60
e 45 61
e 45 62
e 45 63
e 46 47
e 46 48
e 46 49
e 46 50
e 47 48
e 47 49
e 47 50
e 48 49
e 48 50
e 49 50
e 51 52
e 51 53
e 52 53
e 52 54
e 53 54
e 55 56
e 55 57
e 55 58
e 55 59
e 56 57
e 56 58
e 56 59
e 57 58
e 57 59
e 58 59
e 60 61
e 60 62
e 60 63
e 61 62
e 61 63
e 62 63
l 18
